451 8691
 2 3 4 5 6 7 8 9 10 11 12 13 14 15 16 33 38 43 44 45 50 52 56 57 58 59 60 61 62 63 64 65 66 67 68 69 70 71 72 73 74 75 76 77 78 79 80 81 82 83 84 85 86 87 88 89 91 92 93 94 95 96 97 98 99 100 101 102 103 104 105 109 110 111 112 113 114 115 116 117 118 121 122 124 125 126 128 130 131 132 133 134 135 136 137 138 139 141 142 146 147 148 149 151 152 153 154 155 156 158 159 160 161 162 163 165 166 167 168 169 170 171 176 178 179 180 181 182 183 184 185 186 187 188 189 190 191 192 193 194 195 196 197 198 199 200 201 202 203 204 205 206 209 210 211 212 213 214 215 216 218 219 220 221 222 223 224 225 226 227 228 229 230 231 232 233 234 235 238 239 240 241 242 244 245 248 249 252 253 254 255 256 257 258 259 260 261 262 263 264 265 266 267 268 269 270 271 272 273 274 275 277 278 279 281 283 285 286 288 289 290 291 292 293 294 295 296 297 298 299 300 303 304 305 306 307 308 309 310 311 312 313 314 315 316 317 318 319 320 321 322 323 324 326 329 330 331 332 333 334 335 338 339 343 345 346 347 348 349 350 351 352 353 354 355 356 359 360 361 363 364 365 366 367 368 369 370 371 372 373 374 375 376 377 380 383 384 386 388 389 390 391 392 393 394 397 398 399 400 402 403 404 405 406 409 411 412 413 414 415 416 417 418 419 420 422 423 425 426 427 429 430 431 432 433 434 435 436 437 439 441 443 444 445 448 451
 3 4 5 6 7 8 9 10 11 12 13 14 15 16 33 38 43 44 45 50 52 56 57 58 59 60 61 62 63 64 65 66 67 68 69 70 71 72 73 74 75 76 77 78 79 80 81 82 83 84 85 86 87 88 89 91 92 93 94 95 96 97 98 99 100 101 102 103 104 105 109 110 111 112 113 114 115 116 117 118 121 122 124 125 126 128 130 131 132 133 134 135 136 137 138 139 141 142 146 147 148 149 151 152 153 154 155 156 158 159 160 161 162 163 165 166 167 168 169 170 171 176 178 179 180 181 182 183 184 185 186 187 188 189 190 191 192 193 194 195 196 197 198 199 200 201 202 203 204 205 206 209 210 211 212 213 214 215 216 218 219 220 221 222 223 224 225 226 227 228 229 230 231 232 233 234 235 238 239 240 241 242 244 245 248 249 252 253 254 255 256 257 258 259 260 261 262 263 264 265 266 267 268 269 270 271 272 273 274 275 277 278 279 281 283 285 286 288 289 290 291 292 293 294 295 296 297 298 299 300 303 304 305 306 307 308 309 310 311 312 313 314 315 316 317 318 319 320 321 322 323 324 326 329 330 331 332 333 334 335 338 339 343 345 346 347 348 349 350 351 352 353 354 355 356 359 360 361 363 364 365 366 367 368 369 370 371 372 373 374 375 376 377 380 383 384 386 388 389 390 391 392 393 394 397 398 399 400 402 403 404 405 406 409 411 412 413 414 415 416 417 418 419 420 422 423 425 426 427 429 430 431 432 433 434 435 436 437 439 441 443 444 445 448 451
 4 5 6 7 8 9 10 11 12 13 14 15 16 50 78 79 80 81 82 83 84 85 86 128 181 209 210 211 212 213 214 215 216 238 239 240 241 242 285 286 359 360 361 384 386 409 425 426 427 441
 5 6 7 8 9 10 11 12 13 14 15 16 50 78 79 80 81 82 83 84 85 86 128 181 209 210 211 212 213 214 215 216 238 239 240 241 242 285 286 359 360 361 384 386 409 425 426 427 441
 6 7 8 9 10 11 12 13 14 15 16 50 70 78 79 80 81 82 83 84 85 86 128 181 209 210 211 212 213 214 215 216 238 239 240 241 242 267 285 286 359 360 361 384 386 409 425 426 427 441
 7 8 9 10 11 12 13 14 15 16 50 70 71 78 79 80 81 82 83 84 85 86 128 181 209 210 211 212 213 214 215 216 238 239 240 241 242 266 267 285 286 359 360 361 384 386 409 425 426 427 441
 8 9 10 11 12 13 14 15 16 50 70 71 72 78 79 80 81 82 83 84 85 86 128 181 209 210 211 212 213 214 215 216 238 239 240 241 242 265 266 267 285 286 359 360 361 384 386 409 425 426 427 441
 9 10 11 12 13 14 15 16 50 70 71 72 73 78 79 80 81 82 83 84 85 86 128 181 209 210 211 212 213 214 215 216 238 239 240 241 242 264 265 266 267 285 286 359 360 361 384 386 409 425 426 427 441
 10 11 12 13 14 15 16 50 70 71 72 73 74 78 79 80 81 82 83 84 85 86 128 181 209 210 211 212 213 214 215 216 238 239 240 241 242 263 264 265 266 267 285 286 359 360 361 384 386 409 425 426 427 441
 11 12 13 14 15 16 50 70 71 72 73 74 75 78 79 80 81 82 83 84 85 86 128 181 209 210 211 212 213 214 215 216 238 239 240 241 242 262 263 264 265 266 267 285 286 359 360 361 384 386 409 425 426 427 441
 12 13 14 15 16 43 44 50 57 70 71 72 73 74 75 76 77 78 79 80 81 82 83 84 85 86 89 95 128 142 167 170 181 209 210 211 212 213 214 215 216 238 239 240 241 242 285 286 297 332 359 360 361 384 386 409 425 426 427 441
 13 14 15 16 43 44 50 57 70 71 72 73 74 75 76 77 78 79 80 81 82 83 84 85 86 87 88 89 95 128 142 167 170 181 209 210 211 212 213 214 215 216 238 239 240 241 242 285 286 297 332 359 360 361 384 386 409 425 426 427 441
 14 15 16 33 43 44 50 57 70 71 72 73 74 75 76 77 78 79 80 81 82 83 84 85 86 87 88 89 95 128 142 167 170 181 209 210 211 212 213 214 215 216 238 239 240 241 242 285 286 297 332 359 360 361 384 386 409 425 426 427 441
 15 16 33 43 44 50 57 70 71 72 73 74 75 76 77 78 79 80 81 82 83 84 85 86 87 88 89 91 92 95 128 142 167 170 181 209 210 211 212 213 214 215 216 238 239 240 241 242 285 286 297 332 359 360 361 384 386 409 425 426 427 441
 16 43 44 50 57 78 79 80 81 82 83 84 85 86 89 95 128 142 167 170 181 209 210 211 212 213 214 215 216 238 239 240 241 242 285 286 297 332 359 360 361 384 386 409 425 426 427 441
 43 44 50 57 70 71 72 73 74 75 76 78 79 80 81 82 83 84 85 86 89 95 128 142 167 170 181 209 210 211 212 213 214 215 216 238 239 240 241 242 261 262 263 264 265 266 267 285 286 297 332 359 360 361 384 386 409 425 426 427 441
 18 19 20 21 22 23 24 25 26 27 28 29 30 31 32 33 38 43 44 45 50 52 56 57 58 59 60 61 62 63 64 65 66 67 68 69 70 71 72 73 74 75 76 77 78 79 80 81 82 83 84 85 86 87 88 89 91 92 93 94 95 96 97 98 99 100 101 102 103 104 105 109 110 111 112 113 114 115 116 117 118 121 122 124 125 126 128 130 131 132 133 134 135 136 137 138 139 141 142 146 147 148 149 151 152 153 154 155 156 158 159 160 161 162 163 165 166 167 168 169 170 171 176 178 179 180 181 182 183 184 185 186 187 188 189 190 191 192 193 194 195 196 197 198 199 200 201 202 203 204 205 206 209 210 211 212 213 214 215 216 218 219 220 221 222 223 224 225 226 227 228 229 230 231 232 233 234 235 238 239 240 241 242 244 245 248 249 252 253 254 255 256 257 258 259 260 261 262 263 264 265 266 267 268 269 270 271 272 273 274 275 277 278 279 281 283 285 286 288 289 290 291 292 293 294 295 296 297 298 299 300 303 304 305 306 307 308 309 310 311 312 313 314 315 316 317 318 319 320 321 322 323 324 326 329 330 331 332 333 334 335 338 339 343 345 346 347 348 349 350 351 352 353 354 355 356 359 360 361 363 364 365 366 367 368 369 370 371 372 373 374 375 376 377 380 383 384 386 388 389 390 391 392 393 394 397 398 399 400 402 403 404 405 406 409 411 412 413 414 415 416 417 418 419 420 422 423 425 426 427 429 430 431 432 433 434 435 436 437 439 441 443 444 445 448 451
 19 20 21 22 23 24 25 26 27 28 29 30 31 32 33 38 43 44 45 52 56 57 58 59 60 61 62 63 64 65 66 67 68 69 70 71 72 73 74 75 76 77 87 88 89 91 92 93 94 95 96 97 98 99 100 101 102 103 104 105 109 110 111 112 113 114 115 116 117 118 121 122 124 125 126 130 131 132 133 134 135 136 137 138 139 141 142 146 147 148 149 151 152 153 154 155 156 158 159 160 161 162 163 165 166 167 168 169 170 171 176 178 179 180 182 183 184 185 186 187 188 189 190 191 192 193 194 195 196 197 198 199 200 201 202 203 204 205 206 218 219 220 221 222 223 224 225 226 227 228 229 230 231 232 233 234 235 244 245 248 249 252 253 254 255 256 257 258 259 260 261 262 263 264 265 266 267 268 269 270 271 272 273 274 275 277 278 279 281 283 288 289 290 291 292 293 294 295 296 297 298 299 300 303 304 305 306 307 308 309 310 311 312 313 314 315 316 317 318 319 320 321 322 323 324 326 329 330 331 332 333 334 335 338 339 343 345 346 347 348 349 350 351 352 353 354 355 356 363 364 365 366 367 368 369 370 371 372 373 374 375 376 377 380 383 388 389 390 391 392 393 394 397 398 399 400 402 403 404 405 406 411 412 413 414 415 416 417 418 419 420 422 423 429 430 431 432 433 434 435 436 437 439 443 444 445 448 451
 20 21 22 23 24 25 26 27 28 29 30 31 32 33 38 43 44 45 52 56 57 58 59 60 61 62 63 64 65 66 67 68 69 70 71 72 73 74 75 76 77 78 87 88 89 91 92 93 94 95 96 97 98 99 100 101 102 103 104 105 109 110 111 112 113 114 115 116 117 118 121 122 124 125 126 130 131 132 133 134 135 136 137 138 139 141 142 146 147 148 149 151 152 153 154 155 156 158 159 160 161 162 163 165 166 167 168 169 170 171 176 178 179 180 182 183 184 185 186 187 188 189 190 191 192 193 194 195 196 197 198 199 200 201 202 203 204 205 206 218 219 220 221 222 223 224 225 226 227 228 229 230 231 232 233 234 235 244 245 248 249 252 253 254 255 256 257 258 259 260 261 262 263 264 265 266 267 268 269 270 271 272 273 274 275 277 278 279 281 283 288 289 290 291 292 293 294 295 296 297 298 299 300 303 304 305 306 307 308 309 310 311 312 313 314 315 316 317 318 319 320 321 322 323 324 326 329 330 331 332 333 334 335 338 339 343 345 346 347 348 349 350 351 352 353 354 355 356 363 364 365 366 367 368 369 370 371 372 373 374 375 376 377 380 383 388 389 390 391 392 393 394 397 398 399 400 402 403 404 405 406 411 412 413 414 415 416 417 418 419 420 422 423 429 430 431 432 433 434 435 436 437 439 443 444 445 448 451
 21 22 23 24 25 26 27 28 29 30 31 32 33 38 43 44 45 52 56 57 58 59 60 61 62 63 64 65 66 67 68 69 70 71 72 73 74 75 76 77 78 79 87 88 89 91 92 93 94 95 96 97 98 99 100 101 102 103 104 105 109 110 111 112 113 114 115 116 117 118 121 122 124 125 126 130 131 132 133 134 135 136 137 138 139 141 142 146 147 148 149 151 152 153 154 155 156 158 159 160 161 162 163 165 166 167 168 169 170 171 176 178 179 180 182 183 184 185 186 187 188 189 190 191 192 193 194 195 196 197 198 199 200 201 202 203 204 205 206 218 219 220 221 222 223 224 225 226 227 228 229 230 231 232 233 234 235 244 245 248 249 252 253 254 255 256 257 258 259 260 261 262 263 264 265 266 267 268 269 270 271 272 273 274 275 277 278 279 281 283 288 289 290 291 292 293 294 295 296 297 298 299 300 303 304 305 306 307 308 309 310 311 312 313 314 315 316 317 318 319 320 321 322 323 324 326 329 330 331 332 333 334 335 338 339 343 345 346 347 348 349 350 351 352 353 354 355 356 363 364 365 366 367 368 369 370 371 372 373 374 375 376 377 380 383 388 389 390 391 392 393 394 397 398 399 400 402 403 404 405 406 411 412 413 414 415 416 417 418 419 420 422 423 429 430 431 432 433 434 435 436 437 439 443 444 445 448 451
 22 23 24 25 26 27 28 29 30 31 32 33 38 43 44 45 52 56 57 58 59 60 61 62 63 64 65 66 67 68 69 70 71 72 73 74 75 76 77 78 79 80 87 88 89 91 92 93 94 95 96 97 98 99 100 101 102 103 104 105 109 110 111 112 113 114 115 116 117 118 121 122 124 125 126 130 131 132 133 134 135 136 137 138 139 141 142 146 147 148 149 151 152 153 154 155 156 158 159 160 161 162 163 165 166 167 168 169 170 171 176 178 179 180 182 183 184 185 186 187 188 189 190 191 192 193 194 195 196 197 198 199 200 201 202 203 204 205 206 218 219 220 221 222 223 224 225 226 227 228 229 230 231 232 233 234 235 244 245 248 249 252 253 254 255 256 257 258 259 260 261 262 263 264 265 266 267 268 269 270 271 272 273 274 275 277 278 279 281 283 288 289 290 291 292 293 294 295 296 297 298 299 300 303 304 305 306 307 308 309 310 311 312 313 314 315 316 317 318 319 320 321 322 323 324 326 329 330 331 332 333 334 335 338 339 343 345 346 347 348 349 350 351 352 353 354 355 356 363 364 365 366 367 368 369 370 371 372 373 374 375 376 377 380 383 388 389 390 391 392 393 394 397 398 399 400 402 403 404 405 406 411 412 413 414 415 416 417 418 419 420 422 423 429 430 431 432 433 434 435 436 437 439 443 444 445 448 451
 23 24 25 26 27 28 29 30 31 32 33 38 43 44 45 52 56 57 58 59 60 61 62 63 64 65 66 67 68 69 70 71 72 73 74 75 76 77 78 79 80 81 87 88 89 91 92 93 94 95 96 97 98 99 100 101 102 103 104 105 109 110 111 112 113 114 115 116 117 118 121 122 124 125 126 130 131 132 133 134 135 136 137 138 139 141 142 146 147 148 149 151 152 153 154 155 156 158 159 160 161 162 163 165 166 167 168 169 170 171 176 178 179 180 182 183 184 185 186 187 188 189 190 191 192 193 194 195 196 197 198 199 200 201 202 203 204 205 206 218 219 220 221 222 223 224 225 226 227 228 229 230 231 232 233 234 235 244 245 248 249 252 253 254 255 256 257 258 259 260 261 262 263 264 265 266 267 268 269 270 271 272 273 274 275 277 278 279 281 283 288 289 290 291 292 293 294 295 296 297 298 299 300 303 304 305 306 307 308 309 310 311 312 313 314 315 316 317 318 319 320 321 322 323 324 326 329 330 331 332 333 334 335 338 339 343 345 346 347 348 349 350 351 352 353 354 355 356 363 364 365 366 367 368 369 370 371 372 373 374 375 376 377 380 383 388 389 390 391 392 393 394 397 398 399 400 402 403 404 405 406 411 412 413 414 415 416 417 418 419 420 422 423 429 430 431 432 433 434 435 436 437 439 443 444 445 448 451
 24 25 26 27 28 29 30 31 32 33 38 43 44 45 52 56 57 58 59 60 61 62 63 64 65 66 67 68 69 70 71 72 73 74 75 76 77 78 79 80 81 82 87 88 89 91 92 93 94 95 96 97 98 99 100 101 102 103 104 105 109 110 111 112 113 114 115 116 117 118 121 122 124 125 126 130 131 132 133 134 135 136 137 138 139 141 142 146 147 148 149 151 152 153 154 155 156 158 159 160 161 162 163 165 166 167 168 169 170 171 176 178 179 180 182 183 184 185 186 187 188 189 190 191 192 193 194 195 196 197 198 199 200 201 202 203 204 205 206 218 219 220 221 222 223 224 225 226 227 228 229 230 231 232 233 234 235 244 245 248 249 252 253 254 255 256 257 258 259 260 261 262 263 264 265 266 267 268 269 270 271 272 273 274 275 277 278 279 281 283 288 289 290 291 292 293 294 295 296 297 298 299 300 303 304 305 306 307 308 309 310 311 312 313 314 315 316 317 318 319 320 321 322 323 324 326 329 330 331 332 333 334 335 338 339 343 345 346 347 348 349 350 351 352 353 354 355 356 363 364 365 366 367 368 369 370 371 372 373 374 375 376 377 380 383 388 389 390 391 392 393 394 397 398 399 400 402 403 404 405 406 411 412 413 414 415 416 417 418 419 420 422 423 429 430 431 432 433 434 435 436 437 439 443 444 445 448 451
 25 26 27 28 29 30 31 32 33 38 43 44 45 52 56 57 58 59 60 61 62 63 64 65 66 67 68 69 70 71 72 73 74 75 76 77 78 79 80 81 82 83 87 88 89 91 92 93 94 95 96 97 98 99 100 101 102 103 104 105 109 110 111 112 113 114 115 116 117 118 121 122 124 125 126 130 131 132 133 134 135 136 137 138 139 141 142 146 147 148 149 151 152 153 154 155 156 158 159 160 161 162 163 165 166 167 168 169 170 171 176 178 179 180 182 183 184 185 186 187 188 189 190 191 192 193 194 195 196 197 198 199 200 201 202 203 204 205 206 218 219 220 221 222 223 224 225 226 227 228 229 230 231 232 233 234 235 244 245 248 249 252 253 254 255 256 257 258 259 260 261 262 263 264 265 266 267 268 269 270 271 272 273 274 275 277 278 279 281 283 288 289 290 291 292 293 294 295 296 297 298 299 300 303 304 305 306 307 308 309 310 311 312 313 314 315 316 317 318 319 320 321 322 323 324 326 329 330 331 332 333 334 335 338 339 343 345 346 347 348 349 350 351 352 353 354 355 356 363 364 365 366 367 368 369 370 371 372 373 374 375 376 377 380 383 388 389 390 391 392 393 394 397 398 399 400 402 403 404 405 406 411 412 413 414 415 416 417 418 419 420 422 423 429 430 431 432 433 434 435 436 437 439 443 444 445 448 451
 26 27 28 29 30 31 32 33 38 43 44 45 52 56 57 58 59 60 61 62 63 64 65 66 67 68 69 70 71 72 73 74 75 76 77 78 79 80 81 82 83 84 87 88 89 91 92 93 94 95 96 97 98 99 100 101 102 103 104 105 109 110 111 112 113 114 115 116 117 118 121 122 124 125 126 130 131 132 133 134 135 136 137 138 139 141 142 146 147 148 149 151 152 153 154 155 156 158 159 160 161 162 163 165 166 167 168 169 170 171 176 178 179 180 182 183 184 185 186 187 188 189 190 191 192 193 194 195 196 197 198 199 200 201 202 203 204 205 206 218 219 220 221 222 223 224 225 226 227 228 229 230 231 232 233 234 235 244 245 248 249 252 253 254 255 256 257 258 259 260 261 262 263 264 265 266 267 268 269 270 271 272 273 274 275 277 278 279 281 283 288 289 290 291 292 293 294 295 296 297 298 299 300 303 304 305 306 307 308 309 310 311 312 313 314 315 316 317 318 319 320 321 322 323 324 326 329 330 331 332 333 334 335 338 339 343 345 346 347 348 349 350 351 352 353 354 355 356 363 364 365 366 367 368 369 370 371 372 373 374 375 376 377 380 383 388 389 390 391 392 393 394 397 398 399 400 402 403 404 405 406 411 412 413 414 415 416 417 418 419 420 422 423 429 430 431 432 433 434 435 436 437 439 443 444 445 448 451
 27 28 29 30 31 32 33 38 43 44 45 52 56 57 58 59 60 61 62 63 64 65 66 67 68 69 70 71 72 73 74 75 76 77 78 79 80 81 82 83 84 85 87 88 89 91 92 93 94 95 96 97 98 99 100 101 102 103 104 105 109 110 111 112 113 114 115 116 117 118 121 122 124 125 126 130 131 132 133 134 135 136 137 138 139 141 142 146 147 148 149 151 152 153 154 155 156 158 159 160 161 162 163 165 166 167 168 169 170 171 176 178 179 180 182 183 184 185 186 187 188 189 190 191 192 193 194 195 196 197 198 199 200 201 202 203 204 205 206 218 219 220 221 222 223 224 225 226 227 228 229 230 231 232 233 234 235 244 245 248 249 252 253 254 255 256 257 258 259 260 261 262 263 264 265 266 267 268 269 270 271 272 273 274 275 277 278 279 281 283 288 289 290 291 292 293 294 295 296 297 298 299 300 303 304 305 306 307 308 309 310 311 312 313 314 315 316 317 318 319 320 321 322 323 324 326 329 330 331 332 333 334 335 338 339 343 345 346 347 348 349 350 351 352 353 354 355 356 363 364 365 366 367 368 369 370 371 372 373 374 375 376 377 380 383 388 389 390 391 392 393 394 397 398 399 400 402 403 404 405 406 411 412 413 414 415 416 417 418 419 420 422 423 429 430 431 432 433 434 435 436 437 439 443 444 445 448 451
 28 29 30 31 32 33 38 43 44 45 52 56 57 58 59 60 61 62 63 64 65 66 67 68 69 70 71 72 73 74 75 76 77 78 79 80 81 82 83 84 85 86 87 88 89 91 92 93 94 95 96 97 98 99 100 101 102 103 104 105 109 110 111 112 113 114 115 116 117 118 121 122 124 125 126 130 131 132 133 134 135 136 137 138 139 141 142 146 147 148 149 151 152 153 154 155 156 158 159 160 161 162 163 165 166 167 168 169 170 171 176 178 179 180 182 183 184 185 186 187 188 189 190 191 192 193 194 195 196 197 198 199 200 201 202 203 204 205 206 218 219 220 221 222 223 224 225 226 227 228 229 230 231 232 233 234 235 244 245 248 249 252 253 254 255 256 257 258 259 260 261 262 263 264 265 266 267 268 269 270 271 272 273 274 275 277 278 279 281 283 288 289 290 291 292 293 294 295 296 297 298 299 300 303 304 305 306 307 308 309 310 311 312 313 314 315 316 317 318 319 320 321 322 323 324 326 329 330 331 332 333 334 335 338 339 343 345 346 347 348 349 350 351 352 353 354 355 356 363 364 365 366 367 368 369 370 371 372 373 374 375 376 377 380 383 388 389 390 391 392 393 394 397 398 399 400 402 403 404 405 406 411 412 413 414 415 416 417 418 419 420 422 423 429 430 431 432 433 434 435 436 437 439 443 444 445 448 451
 29 30 31 32 33 38 43 44 45 52 56 57 58 59 60 61 62 63 64 65 66 67 68 69 70 71 72 73 74 75 76 77 78 79 80 81 82 83 84 85 86 87 88 89 91 92 93 94 95 96 97 98 99 100 101 102 103 104 105 109 110 111 112 113 114 115 116 117 118 121 122 124 125 126 130 131 132 133 134 135 136 137 138 139 141 142 146 147 148 149 151 152 153 154 155 156 158 159 160 161 162 163 165 166 167 168 169 170 171 176 178 179 180 182 183 184 185 186 187 188 189 190 191 192 193 194 195 196 197 198 199 200 201 202 203 204 205 206 218 219 220 221 222 223 224 225 226 227 228 229 230 231 232 233 234 235 244 245 248 249 252 253 254 255 256 257 258 259 260 261 262 263 264 265 266 267 268 269 270 271 272 273 274 275 277 278 279 281 283 288 289 290 291 292 293 294 295 296 297 298 299 300 303 304 305 306 307 308 309 310 311 312 313 314 315 316 317 318 319 320 321 322 323 324 326 329 330 331 332 333 334 335 338 339 343 345 346 347 348 349 350 351 352 353 354 355 356 363 364 365 366 367 368 369 370 371 372 373 374 375 376 377 380 383 388 389 390 391 392 393 394 397 398 399 400 402 403 404 405 406 411 412 413 414 415 416 417 418 419 420 422 423 429 430 431 432 433 434 435 436 437 439 443 444 445 448 451
 30 31 32 33 38 43 44 45 52 56 57 58 59 60 61 62 63 64 65 66 67 68 69 70 71 72 73 74 75 76 77 78 79 80 81 82 83 84 85 86 87 88 89 91 92 93 94 95 96 97 98 99 100 101 102 103 104 105 109 110 111 112 113 114 115 116 117 118 121 122 124 125 126 130 131 132 133 134 135 136 137 138 139 141 142 146 147 148 149 151 152 153 154 155 156 158 159 160 161 162 163 165 166 167 168 169 170 171 176 178 179 180 182 183 184 185 186 187 188 189 190 191 192 193 194 195 196 197 198 199 200 201 202 203 204 205 206 218 219 220 221 222 223 224 225 226 227 228 229 230 231 232 233 234 235 244 245 248 249 252 253 254 255 256 257 258 259 260 261 262 263 264 265 266 267 268 269 270 271 272 273 274 275 277 278 279 281 283 288 289 290 291 292 293 294 295 296 297 298 299 300 303 304 305 306 307 308 309 310 311 312 313 314 315 316 317 318 319 320 321 322 323 324 326 329 330 331 332 333 334 335 338 339 343 345 346 347 348 349 350 351 352 353 354 355 356 363 364 365 366 367 368 369 370 371 372 373 374 375 376 377 380 383 388 389 390 391 392 393 394 397 398 399 400 402 403 404 405 406 411 412 413 414 415 416 417 418 419 420 422 423 429 430 431 432 433 434 435 436 437 439 443 444 445 448 451
 31 32 33 38 43 44 45 52 56 57 58 59 60 61 62 63 64 65 66 67 68 69 70 71 72 73 74 75 76 77 78 79 80 81 82 83 84 85 86 87 88 89 91 92 93 94 95 96 97 98 99 100 101 102 103 104 105 109 110 111 112 113 114 115 116 117 118 121 122 124 125 126 130 131 132 133 134 135 136 137 138 139 141 142 146 147 148 149 151 152 153 154 155 156 158 159 160 161 162 163 165 166 167 168 169 170 171 176 178 179 180 182 183 184 185 186 187 188 189 190 191 192 193 194 195 196 197 198 199 200 201 202 203 204 205 206 218 219 220 221 222 223 224 225 226 227 228 229 230 231 232 233 234 235 244 245 248 249 252 253 254 255 256 257 258 259 260 261 262 263 264 265 266 267 268 269 270 271 272 273 274 275 277 278 279 281 283 288 289 290 291 292 293 294 295 296 297 298 299 300 303 304 305 306 307 308 309 310 311 312 313 314 315 316 317 318 319 320 321 322 323 324 326 329 330 331 332 333 334 335 338 339 343 345 346 347 348 349 350 351 352 353 354 355 356 363 364 365 366 367 368 369 370 371 372 373 374 375 376 377 380 383 388 389 390 391 392 393 394 397 398 399 400 402 403 404 405 406 411 412 413 414 415 416 417 418 419 420 422 423 429 430 431 432 433 434 435 436 437 439 443 444 445 448 451
 32 33 38 43 44 45 52 56 57 58 59 60 61 62 63 64 65 66 67 68 69 70 71 72 73 74 75 76 77 78 79 80 81 82 83 84 85 86 87 88 89 91 92 93 94 95 96 97 98 99 100 101 102 103 104 105 109 110 111 112 113 114 115 116 117 118 121 122 124 125 126 130 131 132 133 134 135 136 137 138 139 141 142 146 147 148 149 151 152 153 154 155 156 158 159 160 161 162 163 165 166 167 168 169 170 171 176 178 179 180 182 183 184 185 186 187 188 189 190 191 192 193 194 195 196 197 198 199 200 201 202 203 204 205 206 218 219 220 221 222 223 224 225 226 227 228 229 230 231 232 233 234 235 244 245 248 249 252 253 254 255 256 257 258 259 260 261 262 263 264 265 266 267 268 269 270 271 272 273 274 275 277 278 279 281 283 288 289 290 291 292 293 294 295 296 297 298 299 300 303 304 305 306 307 308 309 310 311 312 313 314 315 316 317 318 319 320 321 322 323 324 326 329 330 331 332 333 334 335 338 339 343 345 346 347 348 349 350 351 352 353 354 355 356 363 364 365 366 367 368 369 370 371 372 373 374 375 376 377 380 383 388 389 390 391 392 393 394 397 398 399 400 402 403 404 405 406 411 412 413 414 415 416 417 418 419 420 422 423 429 430 431 432 433 434 435 436 437 439 443 444 445 448 451
 33 38 43 44 45 52 56 57 58 59 60 61 62 63 64 65 66 67 68 69 70 71 72 73 74 75 76 77 78 79 80 81 82 83 84 85 86 87 88 89 91 92 93 94 95 96 97 98 99 100 101 102 103 104 105 109 110 111 112 113 114 115 116 117 118 121 122 124 125 126 130 131 132 133 134 135 136 137 138 139 141 142 146 147 148 149 151 152 153 154 155 156 158 159 160 161 162 163 165 166 167 168 169 170 171 176 178 179 180 182 183 184 185 186 187 188 189 190 191 192 193 194 195 196 197 198 199 200 201 202 203 204 205 206 218 219 220 221 222 223 224 225 226 227 228 229 230 231 232 233 234 235 244 245 248 249 252 253 254 255 256 257 258 259 260 261 262 263 264 265 266 267 268 269 270 271 272 273 274 275 277 278 279 281 283 288 289 290 291 292 293 294 295 296 297 298 299 300 303 304 305 306 307 308 309 310 311 312 313 314 315 316 317 318 319 320 321 322 323 324 326 329 330 331 332 333 334 335 338 339 343 345 346 347 348 349 350 351 352 353 354 355 356 363 364 365 366 367 368 369 370 371 372 373 374 375 376 377 380 383 388 389 390 391 392 393 394 397 398 399 400 402 403 404 405 406 411 412 413 414 415 416 417 418 419 420 422 423 429 430 431 432 433 434 435 436 437 439 443 444 445 448 451
 43 45 59 60 61 62 63 64 89 91 92 93 94 95 96 97 98 99 100 101 102 103 104 105 109 110 111 112 113 114 115 116 117 118 121 122 124 125 126 130 131 132 133 134 135 136 137 138 139 141 142 146 147 148 149 151 152 153 154 155 156 158 159 160 161 162 163 165 166 167 168 169 170 171 176 178 179 180 182 183 184 185 186 187 188 189 190 191 192 193 194 195 196 197 198 199 200 201 202 203 204 205 206 218 219 220 221 222 223 224 225 226 227 228 229 230 231 232 233 234 235 244 245 430 431 432 433 434 435 436 437 439 443 444 445 448 451




 44 52 56 57 58 65 66 67 68 69 89 95 252 253 254 255 268 269 270 271 272 273 274 275 277 278 279 281 283 288 289 290 291 292 293 294 295 296 297 298 299 300 303 304 305 306 307 308 309 310 311 312 313 314 315 316 317 318 319 320 321 322 323 324 326 329 330 331 332 333 334 335 343 345 346 347 348 349 350 351 352 353 354 355 356 363 364 365 366 367 368 369 370 371 372 373 374 375 376 377 380 383 388 389 390 391 392 393 394 397 398 399 400 402 403 404 405 406 411 412 413 414 415 416 417 418 419 420 422 423 429




 45 62 63 89 95 142 165 166 167 168 169 170 171 176 178 179 180 182 183 184 185 186 187 188 189 190 191 192 193 194 195 196 197 198 199 200 201 202 203 204 205 206 218 219 220 221 222 223 224 225 226 227 228 229 230 231 232 233 234 235 244
 52 57 68 69 89 95 297 329 330 331 332 333 334 335 338 339 343 345 346 347 348 349 350 351 352 353 354 355 356 363 364 365 366 367 368 369 370 371 372 373 374 375 376 377 380 383
 62 63 64 89 95 142 146 147 148 149 151 152 153 154 155 156 158 159 160 161 162 163 165 166 167 168 169 170 171 176 178 179 180 182 183 184 185 186 187 188 189 190 191 192 193 194 195 196 197 198 199 200 201 202 203 204 205 206 218 219 220 221 222 223 224 225 226 227 228 229 230 231 232 233 234 235 244 245 430 431 432 433 434 435 436 437 439 443




 78 79 80 81 82 83 84 85 86 384 386

 56 57 58 65 66 67 69 89 95 252 253 268 269 270 271 272 273 274 275 277 278 279 281 283 288 289 290 291 292 293 294 295 296 297 298 299 300 303 304 305 306 307 308 309 310 311 312 313 314 315 316 317 318 319 320 321 322 323 324 326 329 330 331 332 333 343 345 346 347 348 349 350 351 352 353 354 355 356 363 388 389 390 391 392 393 394 397 398 399 400 402 403 404 405 406 411 412 413 414 415 416 417 418 419 420 422 423 429



 66 89 270 272 273 275 277 278 279 281 283 288
 68 69 89 95 297 326 329 330 331 332 333 334 335 338 339 343 345 346 347 348 349 350 351 352 353 354 355 356 363 364 365 366 367 368 369 370 371 372 373 374 375 376 377 380 383
 67 89 95 297 390 393 394 397 398 399 400 402 403 404 405 406 411
 60 61 89 95 100 102 103 104 109 110 111 112 113 114 115 116 117 118 121 122 124 125 126 130
 61 89 95 100 102 103 104 109 110 111 112 113 114 115 116 117 118 121 122 124 125 126 130
 89 95 100 104 113 114 122 124 125 126 130
 89 95 142 167 170 226 231 233 235 244
 89 95 142 192 198 201 202 204 206 218
 89 95 434 437 439 443
 89 95 416 419 420 422 423 429
 89 270 273 275 279 283 288
 89 95 297 390 394 397 404 406 411
 89 95 297 332 368 370 373 376 377 380 383
 89 95 297 351 354 356 363








 79 80 81 82 83 84 85 86 128 181 209 210 211 212 213 214 215 216 238 239 240 241 242 285 286 359 360 361 384 386 409 425 426 427 441
 80 81 82 83 84 85 86 128 181 209 210 211 212 213 214 215 216 238 239 240 241 242 285 286 359 360 361 384 386 409 425 426 427 441
 81 82 83 84 85 86 128 181 209 210 211 212 213 214 215 216 238 239 240 241 242 285 286 359 360 361 384 386 409 425 426 427 441
 82 83 84 85 86 128 181 209 210 211 212 213 214 215 216 238 239 240 241 242 285 286 359 360 361 384 386 409 425 426 427 441
 83 84 85 86 128 181 209 210 211 212 213 214 215 216 238 239 240 241 242 285 286 359 360 361 384 386 409 425 426 427 441
 84 85 86 128 181 209 210 211 212 213 214 215 216 238 239 240 241 242 285 286 359 360 361 384 386 409 425 426 427 441
 85 86 128 181 209 210 211 212 213 214 215 216 238 239 240 241 242 285 286 359 360 361 384 386 409 425 426 427 441
 86 128 181 209 210 211 212 213 214 215 216 238 239 240 241 242 285 286 359 360 361 384 386 409 425 426 427 441
 128 181 209 210 211 212 213 214 215 216 238 239 240 241 242 285 286 359 360 361 384 386 409 425 426 427 441


 91 92 93 94 95 96 97 98 99 100 101 102 103 104 105 109 110 111 112 113 114 115 116 117 118 121 122 124 125 126 130 131 132 133 134 135 136 137 138 139 141 142 146 147 148 149 151 152 153 154 155 156 158 159 160 161 162 163 165 166 167 168 169 170 171 176 178 179 180 182 183 184 185 186 187 188 189 190 191 192 193 194 195 196 197 198 199 200 201 202 203 204 205 206 218 219 220 221 222 223 224 225 226 227 228 229 230 231 232 233 234 235 244 245 248 249 252 253 254 255 268 269 270 271 272 273 274 275 277 278 279 281 283 288 289 290 291 292 293 294 295 296 297 298 299 300 303 304 305 306 307 308 309 310 311 312 313 314 315 316 317 318 319 320 321 322 323 324 326 329 330 331 332 333 334 335 338 339 343 345 346 347 348 349 350 351 352 353 354 355 356 363 364 365 366 367 368 369 370 371 372 373 374 375 376 377 380 383 388 389 390 391 392 393 394 397 398 399 400 402 403 404 405 406 411 412 413 414 415 416 417 418 419 420 422 423 429 430 431 432 433 434 435 436 437 439 443 444 445 448 451


 93 94 95


 96 97 98 99 100 101 102 103 104 105 109 110 111 112 113 114 115 116 117 118 121 122 124 125 126 130 131 132 133 134 135 136 137 138 139 141 142 146 147 148 149 151 152 153 154 155 156 158 159 160 161 162 163 165 166 167 168 169 170 171 176 178 179 180 182 183 184 185 186 187 188 189 190 191 192 193 194 195 196 197 198 199 200 201 202 203 204 205 206 218 219 220 221 222 223 224 225 226 227 228 229 230 231 232 233 234 235 244 245 248 249 252 289 290 291 292 293 294 295 296 297 298 299 300 303 304 305 306 307 308 309 310 311 312 313 314 315 316 317 318 319 321 322 323 324 326 329 330 331 332 333 334 335 338 339 343 345 346 347 348 349 350 351 352 353 354 355 356 363 364 365 366 367 368 369 370 371 372 373 374 375 376 377 380 383 388 389 390 391 392 393 394 397 398 399 400 402 403 404 405 406 411 412 413 414 415 416 417 418 419 420 422 423 429 430 431 432 433 434 435 436 437 439 443 444 445 448 451

 98 99 100
 99 100 101 102

 101 102 103 104 105 109 110 111 112 113 114 115 116 117 118 121 122 124 125 126 130
 102 103
 103 104 105
 104 105 109
 105 109 110 111 112 113 114 115 116 117 118 121 122 124 125 126 130




 110 111 112 113 114 115
 111 112 113
 112
 113
 114 115 116 117 118 121 122 124 125 126 130
 115 116 117 118 121 122 124 125 126 130







 124 125

 125 126 130
 126 130
 130




 132
 133

 135



 139


 142
 146 147 148 149 151 152 153 154 155 156 158 159 160 161 163 165 166 167 168 169 170 171 176 178 179 180 182 183 184 185 186 187 188 189 190 191 192 193 194 195 196 197 198 199 200 201 202 203 204 205 206 218 219 220 221 222 223 224 225 226 227 228 229 230 231 232 233 234 235 244





 149




 154





 160







 168 169 170 171 176 180 182 219 220 221 222 223 224 225 226 227 228 229 230 231 232 233 234 235 244
 169 170
 170 171
 171 176 180 182 183 219 220 221 222 223 224 225 226 227 228 229 230 231 232 233 234 235 244










 209 210 211 212 213 214 215 216
 183 184 185 186 187 188 189
 184 185 186 187 188 189 190
 185 186 187


 188
 189 190 191 192
 190 191 192 193
 191 192 193 194
 192 193 194 195
 193 194 195 196 197 198 199 200 201 202 203 204 205 206 218
 194 195 196 197
 195 196 197 198 199 200 201 202 203 204 205
 196 197 198 199 200 201
 197 198 199 200 201 202 203

 199 200 201 202 203 204 205 206 218
 200
 201
 202 203 204 205 206 218
 203 204 205 206 218

 205 206 218

 218


 210

 212 213 214
 213

 215





 221 222
 222 223
 223 224
 224 225 226 227
 225 226 227 228
 226
 227 228 229 230 231 232 233 234 235 244
 228 229 230 231 232 233 234
 229 230
 230 231 232

 232 233 234 235 244

 234 235 244

 244


 239

 241













 255

 257

 259

 261 262 263 264 265 266 267
 262 263 264 265 266 267
 263 264 265 266 267
 264 265 266 267
 265 266 267
 266 267
 267

 269 270
 270 271
 271 272 273 274 275 277 278 279 281 283 288
 272
 273 274 275
 274 275 277 278 279 281 283 288

 277 278 279 281 283 288

 278

 281 283 288



 288





 290 291

 292

 294 295 296 297 298
 295 296 297
 296 297 298

 298 299 300 303 304 305 306 307 308 309 310 311 312 313 314 315 316 317 318 319 321 322 323 324 326 329 330 331 332 333 334 335 338 339 343 345 346 347 348 349 350 351 352 353 354 355 356 363 364 365 366 367 368 369 370 371 372 373 374 375 376 377 380 383 388 389 390 391 392 393 394 397 398 399 400 402 403 404 405 406 411







 306




 311 312 313 314
 312





 318



 322







 330 331
 331 332
 332 333 364 365 366 367 368 369 370 371 372
 333 334 335 338 339 347 348 349 350 351 352 353 354 355 364 365 366 367 368 369 370 371 372 373 374 375 376 377 380 383

 335















 351
 352 353 354 355 356 363
 353

 355 356 363

 363


 360






 367 368

 369 370 371 372 373 374 375 376 377 380 383
 370
 371 372 373 374 375 376 377 380 383
 372 373 374 375 376

 374 375 376 377 380 383
 375
 376
 377 380 383
 380 383










 389 390 391
 390 391 392
 391 392 393 394 397 398 399 400 402 403 404 405 406 411
 392
 393
 394
 397 398 399 400 402 403 404 405 406 411


 398 399 400 402 403 404 405 406 411
 399 403
 403 404 405




 405 406 411

 411








 416
 417 418 419 420 422 423 429
 418

 420 422 423 429
 422

 423 429
 429

 426







 434
 435 436 437 439 443
 436

 439 443

 443












